
Gurobi 6.5.1 (mac64) logging started Thu Jan 11 11:25:17 2018


Gurobi 6.5.1 (mac64) logging started Thu Jan 11 11:35:56 2018


Gurobi 6.5.1 (mac64) logging started Thu Jan 11 11:42:20 2018


Gurobi 6.5.1 (mac64) logging started Thu Jan 11 14:03:28 2018


Gurobi 6.5.1 (mac64) logging started Wed Mar 28 11:17:36 2018

